WARNING: for repeatability, setting FPU to use double precision
============================[ Problem Statistics ]=============================
|                                                                             |
|  Number of variables:            50                                         |
|  Number of clauses:             218                                         |
|  Parse time:                   0.00 s                                       |
|                                                                             |
============================[ Search Statistics ]==============================
| Conflicts |          ORIGINAL         |          LEARNT          | Progress |
|           |    Vars  Clauses Literals |    Limit  Clauses Lit/Cl |          |
===============================================================================
===============================================================================
restarts              : 1
conflicts             : 44             (30450 /sec)
decisions             : 64             (0.00 % random) (44291 /sec)
propagations          : 657            (454671 /sec)
conflict literals     : 159            (18.46 % deleted)
Memory used           : 20.00 MB
CPU time              : 0.001445 s

SATISFIABLE
